
Gurobi 9.1.2 (linux64, gurobi_cl) logging started Fri Jul 30 13:51:56 2021

Using license file /opt/gurobi/gurobi.lic
Set parameter TimeLimit to value 600
Set parameter MIPFocus to value 1
Set parameter LogFile to value 912-MIPFocus1-Presolve2-glass4-1.log
Set parameter Presolve to value 2
Set parameter Seed to value 1

Gurobi Optimizer version 9.1.2 build v9.1.2rc0 (linux64)
Copyright (c) 2021, Gurobi Optimization, LLC

Read MPS format model from file /nfs/models/mip/glass4.mps.bz2
Reading time = 0.14 seconds
glass4: 396 rows, 322 columns, 1815 nonzeros
Thread count: 4 physical cores, 8 logical processors, using up to 8 threads
Optimize a model with 396 rows, 322 columns and 1815 nonzeros
Model fingerprint: 0x0a9d9037
Variable types: 20 continuous, 302 integer (0 binary)
Coefficient statistics:
  Matrix range     [1e+00, 8e+06]
  Objective range  [1e+00, 1e+06]
  Bounds range     [1e+00, 8e+02]
  RHS range        [1e+00, 8e+06]
Presolve removed 6 rows and 6 columns
Presolve time: 0.00s
Presolved: 390 rows, 316 columns, 1803 nonzeros
Variable types: 19 continuous, 297 integer (297 binary)
Found heuristic solution: objective 3.133356e+09
Presolved: 390 rows, 316 columns, 1803 nonzeros


Root relaxation: objective 8.000024e+08, 36 iterations, 0.00 seconds

    Nodes    |    Current Node    |     Objective Bounds      |     Work
 Expl Unexpl |  Obj  Depth IntInf | Incumbent    BestBd   Gap | It/Node Time

     0     0 8.0000e+08    0   72 3.1334e+09 8.0000e+08  74.5%     -    0s
H    0     0                    2.550020e+09 8.0000e+08  68.6%     -    0s
H    0     0                    2.100018e+09 8.0000e+08  61.9%     -    0s
     0     0 8.0000e+08    0   72 2.1000e+09 8.0000e+08  61.9%     -    0s
     0     0 8.0000e+08    0   72 2.1000e+09 8.0000e+08  61.9%     -    0s
     0     0 8.0000e+08    0   74 2.1000e+09 8.0000e+08  61.9%     -    0s
     0     0 8.0000e+08    0   73 2.1000e+09 8.0000e+08  61.9%     -    0s
H    0     0                    2.050018e+09 8.0000e+08  61.0%     -    0s
     0     0 8.0000e+08    0   73 2.0500e+09 8.0000e+08  61.0%     -    0s
H    0     0                    2.050018e+09 8.0000e+08  61.0%     -    0s
     0     0 8.0000e+08    0   77 2.0500e+09 8.0000e+08  61.0%     -    0s
     0     0 8.0000e+08    0   77 2.0500e+09 8.0000e+08  61.0%     -    0s
     0     0 8.0000e+08    0   94 2.0500e+09 8.0000e+08  61.0%     -    0s
     0     0 8.0000e+08    0   82 2.0500e+09 8.0000e+08  61.0%     -    0s
     0     0 8.0000e+08    0   79 2.0500e+09 8.0000e+08  61.0%     -    0s
     0     0 8.0000e+08    0   61 2.0500e+09 8.0000e+08  61.0%     -    0s
H    0     0                    2.000016e+09 8.0000e+08  60.0%     -    0s
H    0     0                    1.970851e+09 8.0000e+08  59.4%     -    0s
H    0     2                    1.966684e+09 8.0000e+08  59.3%     -    0s
     0     2 8.0000e+08    0   59 1.9667e+09 8.0000e+08  59.3%     -    0s
H    3     8                    1.937055e+09 8.0000e+08  58.7%  30.0    0s
H   31    60                    1.922239e+09 8.0000e+08  58.4%  21.7    0s
H  184   267                    1.842440e+09 8.0000e+08  56.6%  10.8    0s
H  282   335                    1.833349e+09 8.0000e+08  56.4%   8.8    0s
H  310   335                    1.825015e+09 8.0000e+08  56.2%   8.2    0s
H  355   335                    1.800016e+09 8.0000e+08  55.6%   8.0    0s
H  355   335                    1.800016e+09 8.0000e+08  55.6%   8.0    0s
H  363   423                    1.800016e+09 8.0001e+08  55.6%   7.9    0s
H  600   543                    1.800015e+09 8.0001e+08  55.6%   8.3    0s
H  798   761                    1.800015e+09 8.0001e+08  55.6%   8.4    1s
H  902   794                    1.800015e+09 8.0001e+08  55.6%   8.2    1s
H  952   890                    1.800014e+09 8.0001e+08  55.6%   8.4    1s
H 1126   900                    1.800014e+09 9.0001e+08  50.0%  13.0    2s
H 3041  1825                    1.755570e+09 9.0001e+08  48.7%  18.4    3s
H 3199  1714                    1.700014e+09 9.0001e+08  47.1%  18.0    3s
H 3200  1674                    1.700013e+09 9.0001e+08  47.1%  18.0    3s
H 3209  1596                    1.675014e+09 9.0001e+08  46.3%  18.0    3s
* 3931  2181              70    1.666685e+09 9.0001e+08  46.0%  20.5    4s
H 3937  2173                    1.650014e+09 9.0001e+08  45.5%  20.6    4s
H 4565  2640                    1.650013e+09 9.0001e+08  45.5%  20.8    4s
H 4606  2638                    1.650013e+09 9.0001e+08  45.5%  20.7    4s
  5917  3690 1.1000e+09   34   59 1.6500e+09 9.0001e+08  45.5%  20.7    5s
* 8724  5806              87    1.633350e+09 9.0001e+08  44.9%  21.1    7s
H 9500  6010                    1.600016e+09 9.0001e+08  43.8%  20.5    7s
*10960  7037              66    1.600014e+09 9.0001e+08  43.8%  21.0    8s
*10964  6737              68    1.566681e+09 9.0001e+08  42.6%  21.0    8s
H11628  6975                    1.550015e+09 9.0001e+08  41.9%  21.4    9s
H11691  6742                    1.500014e+09 9.0001e+08  40.0%  21.4    9s
 14755  8824 infeasible   32      1.5000e+09 9.0001e+08  40.0%  21.0   10s
H14872  8818                    1.500013e+09 9.0001e+08  40.0%  21.1   10s
H15800 11091                    1.500013e+09 9.0001e+08  40.0%  21.3   10s
 25593 14985 1.0750e+09   30   71 1.5000e+09 9.0001e+08  40.0%  20.9   15s
 39532 23142 9.0001e+08   39   50 1.5000e+09 9.0001e+08  40.0%  20.9   20s
 50541 28618 infeasible   28      1.5000e+09 9.0001e+08  40.0%  20.4   25s
 63271 38199 1.2000e+09   47   46 1.5000e+09 9.0001e+08  40.0%  20.4   30s
 76830 42852 1.0184e+09   42   54 1.5000e+09 9.0001e+08  40.0%  20.2   35s
 87700 48138 1.0000e+09   55   49 1.5000e+09 9.0001e+08  40.0%  20.4   40s
 105773 57280 infeasible   59      1.5000e+09 9.0001e+08  40.0%  20.1   45s
H110306 59385                    1.500013e+09 9.0001e+08  40.0%  19.9   46s
 118770 63567 1.0000e+09   56   34 1.5000e+09 9.0001e+08  40.0%  19.9   50s
 136899 72806 9.0001e+08   31   51 1.5000e+09 9.0001e+08  40.0%  19.5   55s
 144989 76589 9.0001e+08   42   45 1.5000e+09 9.0001e+08  40.0%  20.1   60s
 158807 84853 9.0001e+08   65   39 1.5000e+09 9.0001e+08  40.0%  19.6   65s
 172510 90186 1.4059e+09   64   40 1.5000e+09 9.0001e+08  40.0%  19.5   70s
 188164 97765 infeasible   41      1.5000e+09 9.0001e+08  40.0%  19.4   75s
 194697 100374 infeasible   50      1.5000e+09 9.0001e+08  40.0%  19.7   80s
 208637 106989 1.5000e+09   45   35 1.5000e+09 9.0001e+08  40.0%  19.6   85s
 214106 109520 9.0001e+08   40   51 1.5000e+09 9.0001e+08  40.0%  19.7   90s
 226200 115149 9.0001e+08   62   40 1.5000e+09 9.0001e+08  40.0%  19.7   95s
H236249 114490                    1.475013e+09 9.0001e+08  39.0%  19.7   98s
 237017 114787 1.1000e+09   31   37 1.4750e+09 9.0001e+08  39.0%  19.7  100s
 252099 120977 infeasible   38      1.4750e+09 9.0001e+08  39.0%  19.6  105s
 257636 124307 1.4333e+09   47   43 1.4750e+09 9.0001e+08  39.0%  20.0  110s
 272364 128311 infeasible   63      1.4750e+09 9.0001e+08  39.0%  19.9  115s
 286369 133400 1.3000e+09   51   42 1.4750e+09 9.0001e+08  39.0%  19.9  120s
H286376 132354                    1.460014e+09 9.0001e+08  38.4%  19.9  120s
 291176 133530 1.3000e+09   53   34 1.4600e+09 9.0001e+08  38.4%  20.2  125s
H294053 130570                    1.400014e+09 9.0001e+08  35.7%  20.1  126s
 307751 133562 1.2429e+09   48   26 1.4000e+09 9.0001e+08  35.7%  20.2  130s
 321278 137302 1.2000e+09   43   37 1.4000e+09 9.0001e+08  35.7%  20.3  135s
 334120 140866 9.3334e+08   72   43 1.4000e+09 9.0001e+08  35.7%  20.4  140s
 348677 145653 1.2000e+09   43   39 1.4000e+09 9.0001e+08  35.7%  20.4  145s
 361882 149032 infeasible   67      1.4000e+09 9.0001e+08  35.7%  20.5  150s
 378483 154229 infeasible   47      1.4000e+09 9.0001e+08  35.7%  20.6  155s
 387850 158483 9.3334e+08   44   43 1.4000e+09 9.0001e+08  35.7%  20.7  160s
 409409 163646 1.3000e+09   45   47 1.4000e+09 9.0001e+08  35.7%  20.6  165s
H424532 168108                    1.400014e+09 9.0001e+08  35.7%  20.5  169s
 424631 168180 9.0001e+08   60   43 1.4000e+09 9.0001e+08  35.7%  20.5  170s
 443187 173128 infeasible   37      1.4000e+09 9.0001e+08  35.7%  20.5  175s
 457417 175888 infeasible   52      1.4000e+09 9.0001e+08  35.7%  20.6  180s
 475982 179570 1.2000e+09   42   51 1.4000e+09 9.0001e+08  35.7%  20.7  185s
 487790 179927 1.0000e+09   40   29 1.4000e+09 9.0101e+08  35.6%  20.9  190s
H488215 178297                    1.400013e+09 9.0116e+08  35.6%  20.9  190s
H488811 120473                    1.200013e+09 9.0239e+08  24.8%  20.9  190s
 506353 106690 infeasible   56      1.2000e+09 1.0000e+09  16.7%  21.1  195s
 543434 73931 infeasible   35      1.2000e+09 1.0750e+09  10.4%  20.5  200s

Cutting planes:
  Gomory: 40
  Cover: 5
  Implied bound: 42
  Clique: 1
  MIR: 82
  Flow cover: 389
  Inf proof: 1
  RLT: 203
  Relax-and-lift: 163

Explored 594376 nodes (11464667 simplex iterations) in 203.41 seconds
Thread count was 8 (of 8 available processors)

Solution count 10: 1.20001e+09 1.40001e+09 1.40001e+09 ... 1.50001e+09

Optimal solution found (tolerance 1.00e-04)
Best objective 1.200012600000e+09, best bound 1.199961363000e+09, gap 0.0043%
